<number of tasks>
20

<cycle time>
1000

<order strength>
0,289


<task times>
1 169
2 130
3 95
4 195
5 39
6 252
7 208
8 271
9 127
10 130
11 225
12 56
13 154
14 70
15 303
16 27
17 234
18 34
19 82
20 36

<precedence relations>
1,13
2,13
3,7
4,6
6,10
6,11
7,8
7,9
7,12
8,13
9,13
11,14
11,16
12,15
13,17
13,18
13,19
13,20

<end>
